52 31 88 7 18 
5 61 16 85 99 96 6 
2 41 22 75 56 4 26 
33 9 71 65 66 20 70 1 
62 11 64 63 90 32 10 
95 92 42 15 43 57 58 
28 12 76 29 78 35 34 68 
82 47 19 49 36 46 48 
27 69 30 51 81 79 3 77 50 
83 8 45 84 17 60 89 
53 94 87 97 13 
40 21 73 74 
72 23 67 39 25 55 54 24 80 
59 98 44 14 38 86 91 100 37 93 
